certificates/rado_a9_c272_N31.cnf
c Rad2 upper bound instance: x1 + 9*x2 - x3 = 272, interval [1,31]
p cnf 31 172
1 8 31 0
-1 -8 -31 0
2 9 31 0
-2 -9 -31 0
1 3 30 0
-1 -3 -30 0
3 10 31 0
-3 -10 -31 0
2 4 30 0
-2 -4 -30 0
4 11 31 0
-4 -11 -31 0
3 5 30 0
-3 -5 -30 0
5 12 31 0
-5 -12 -31 0
4 6 30 0
-4 -6 -30 0
6 13 31 0
-6 -13 -31 0
5 7 30 0
-5 -7 -30 0
7 14 31 0
-7 -14 -31 0
6 8 30 0
-6 -8 -30 0
8 15 31 0
-8 -15 -31 0
7 9 30 0
-7 -9 -30 0
9 16 31 0
-9 -16 -31 0
8 10 30 0
-8 -10 -30 0
10 17 31 0
-10 -17 -31 0
9 11 30 0
-9 -11 -30 0
11 18 31 0
-11 -18 -31 0
1 12 29 0
-1 -12 -29 0
10 12 30 0
-10 -12 -30 0
12 19 31 0
-12 -19 -31 0
2 13 29 0
-2 -13 -29 0
11 13 30 0
-11 -13 -30 0
13 20 31 0
-13 -20 -31 0
3 14 29 0
-3 -14 -29 0
12 14 30 0
-12 -14 -30 0
14 21 31 0
-14 -21 -31 0
4 15 29 0
-4 -15 -29 0
13 15 30 0
-13 -15 -30 0
15 22 31 0
-15 -22 -31 0
5 16 29 0
-5 -16 -29 0
14 16 30 0
-14 -16 -30 0
16 23 31 0
-16 -23 -31 0
6 17 29 0
-6 -17 -29 0
15 17 30 0
-15 -17 -30 0
17 24 31 0
-17 -24 -31 0
7 18 29 0
-7 -18 -29 0
16 18 30 0
-16 -18 -30 0
18 25 31 0
-18 -25 -31 0
8 19 29 0
-8 -19 -29 0
17 19 30 0
-17 -19 -30 0
19 26 31 0
-19 -26 -31 0
9 20 29 0
-9 -20 -29 0
18 20 30 0
-18 -20 -30 0
20 27 31 0
-20 -27 -31 0
1 21 28 0
-1 -21 -28 0
10 21 29 0
-10 -21 -29 0
19 21 30 0
-19 -21 -30 0
21 28 31 0
-21 -28 -31 0
2 22 28 0
-2 -22 -28 0
11 22 29 0
-11 -22 -29 0
20 22 30 0
-20 -22 -30 0
22 29 31 0
-22 -29 -31 0
3 23 28 0
-3 -23 -28 0
12 23 29 0
-12 -23 -29 0
21 23 30 0
-21 -23 -30 0
23 30 31 0
-23 -30 -31 0
4 24 28 0
-4 -24 -28 0
13 24 29 0
-13 -24 -29 0
22 24 30 0
-22 -24 -30 0
24 31 0
-24 -31 0
5 25 28 0
-5 -25 -28 0
14 25 29 0
-14 -25 -29 0
23 25 30 0
-23 -25 -30 0
6 26 28 0
-6 -26 -28 0
15 26 29 0
-15 -26 -29 0
24 26 30 0
-24 -26 -30 0
7 27 28 0
-7 -27 -28 0
16 27 29 0
-16 -27 -29 0
25 27 30 0
-25 -27 -30 0
8 28 0
-8 -28 0
17 28 29 0
-17 -28 -29 0
26 28 30 0
-26 -28 -30 0
9 28 29 0
-9 -28 -29 0
18 29 0
-18 -29 0
27 29 30 0
-27 -29 -30 0
1 27 30 0
-1 -27 -30 0
10 28 30 0
-10 -28 -30 0
19 29 30 0
-19 -29 -30 0
28 30 0
-28 -30 0
2 27 31 0
-2 -27 -31 0
11 28 31 0
-11 -28 -31 0
20 29 31 0
-20 -29 -31 0
29 30 31 0
-29 -30 -31 0
