certificates/rado_a9_c272_N31.drat
-30 -31 0
-31 0
24 0
30 0
-28 0
-22 0
-26 0
8 0
21 0
11 0
15 0
2 0
29 0
19 0
6 0
0
